100 10
373 214
495 221
344 638
982 611
823 372
388 780
521 781
335 754
550 283
488 767
708 834
278 220
759 170
878 286
413 536
391 887
398 567
523 291
757 248
229 600
497 259
709 518
885 315
664 316
457 657
267 717
487 419
373 619
542 663
301 477
635 221
368 561
697 542
620 286
459 366
367 734
561 257
510 824
518 305
471 593
360 330
552 759
784 532
243 678
284 423
850 400
458 272
804 324
771 283
709 359
796 504
503 115
536 249
471 484
531 364
262 322
624 472
501 428
615 851
771 241
648 581
497 400
675 144
738 190
544 296
430 727
353 197
434 822
622 316
466 697
634 436
878 549
444 760
506 224
583 450
599 528
398 561
487 167
240 622
886 328
645 580
531 441
209 707
219 449
483 218
867 262
869 485
448 510
251 478
800 207
731 439
630 843
294 781
777 298
795 266
485 336
621 191
415 140
233 596
606 645
